NAME: PointSet_Angle_45_7
TYPE: TSP
COMMENT: Points chosen discrete uniformly at random out of ${0, \ldots, 500}^2$.
DIMENSION: 45
EDGE_WEIGHT_TYPE: EUC_2D
NODE_COORD_SECTION
1 114 306
2 320 40
3 491 228
4 59 223
5 54 424
6 329 229
7 154 6
8 379 186
9 442 428
10 401 66
11 452 155
12 420 134
13 61 49
14 13 204
15 277 365
16 3 391
17 171 323
18 432 161
19 297 237
20 385 352
21 160 460
22 80 60
23 212 206
24 246 154
25 380 393
26 220 77
27 48 139
28 211 109
29 435 224
30 60 212
31 335 63
32 102 5
33 133 280
34 414 430
35 263 44
36 27 170
37 250 355
38 230 462
39 307 223
40 362 186
41 115 81
42 9 410
43 467 220
44 19 148
45 190 326
EOF
